NAME : portcgen-19-14
COMMENT : portcgen N=19, seed=14
TYPE : TSP
DIMENSION : 19
EDGE_WEIGHT_TYPE : EUC_2D
NODE_COORD_SECTION
1 -596350 -250761
2 -338164 413146
3 84735 -139164
4 143428 -104720
5 375351 -143894
6 163018 -164321
7 244144 -62267
8 333157 -58976
9 -51307 -257278
10 -185805 -55786
11 -151759 -68488
12 15054 67150
13 -281129 -75770
14 204603 501152
15 115802 254247
16 103935 97355
17 157113 -383293
18 114709 -111149
19 118252 -150390
